************************************************************************
file with basedata            : md354_.bas
initial value random generator: 1192995753
************************************************************************
projects                      :  1
jobs (incl. supersource/sink ):  22
horizon                       :  159
RESOURCES
  - renewable                 :  2   R
  - nonrenewable              :  2   N
  - doubly constrained        :  0   D
************************************************************************
PROJECT INFORMATION:
pronr.  #jobs rel.date duedate tardcost  MPM-Time
    1     20      0       23        6       23
************************************************************************
PRECEDENCE RELATIONS:
jobnr.    #modes  #successors   successors
   1        1          3           2   3   4
   2        3          3           6   9  14
   3        3          3           6   9  13
   4        3          3           5   7  16
   5        3          3           8  12  21
   6        3          1          11
   7        3          3          12  14  18
   8        3          1          18
   9        3          3          10  19  20
  10        3          2          15  16
  11        3          3          17  18  20
  12        3          2          19  20
  13        3          2          14  16
  14        3          1          15
  15        3          1          17
  16        3          1          21
  17        3          1          21
  18        3          1          19
  19        3          1          22
  20        3          1          22
  21        3          1          22
  22        1          0        
************************************************************************
REQUESTS/DURATIONS:
jobnr. mode duration  R 1  R 2  N 1  N 2
------------------------------------------------------------------------
  1      1     0       0    0    0    0
  2      1     1       0    3    8    7
         2     2       9    0    8    6
         3     3       3    0    8    5
  3      1     1       9    0    5    3
         2     9       7    0    4    3
         3    10       2    0    3    2
  4      1     1       6    0    9   10
         2     5       0    6    8    5
         3     9       0    5    4    5
  5      1     2       7    0    8    9
         2     5       5    0    5    8
         3     5       0    4    7    6
  6      1     7       3    0    7    7
         2     8       3    0    4    6
         3     8       0    4    4    5
  7      1     3       0    2    8    8
         2     9       8    0    6    7
         3    10       1    0    5    5
  8      1     3       0    1    8    9
         2     3       0    1    9    8
         3     9       0    1    6    4
  9      1     3       3    0    9    9
         2     7       3    0    8    9
         3     8       0    5    7    8
 10      1     4       0    6    5    6
         2     6       0    5    4    5
         3     6       0    6    5    3
 11      1     7       0    6   10    5
         2     7       3    0   10    7
         3     7       0    2   10    6
 12      1     1       5    0    7    8
         2     2       0    7    6    7
         3     6       0    4    6    7
 13      1     6       0    6    4   10
         2     8       2    0    3    5
         3    10       2    0    1    2
 14      1     6       3    0    6    8
         2     7       0    5    6    8
         3    10       3    0    4    8
 15      1     1       9    0    9    5
         2     6       0    7    9    5
         3     8       8    0    9    4
 16      1     3      10    0    5    7
         2     4       0    5    3    7
         3     9       0    1    3    6
 17      1     1       8    0    2    7
         2     3       0    4    2    5
         3     6       0    4    2    2
 18      1     2       0    4    8    9
         2     4       4    0    6    8
         3    10       3    0    6    7
 19      1     6       0    6    9    4
         2     7       0    5    6    2
         3     9       0    4    5    1
 20      1     3       5    0    9   10
         2     5       0    7    9    9
         3     7       0    5    9    9
 21      1     5       0    9   10    8
         2     8       0    7    9    8
         3     9       5    0    8    7
 22      1     0       0    0    0    0
************************************************************************
RESOURCEAVAILABILITIES:
  R 1  R 2  N 1  N 2
   14   15  119  114
************************************************************************
MAXIMAL LAGS:
from  to  type  delay
    1   22   ES      0
    1    2   ES      0
    2   22   ES      0
    1    3   ES      0
    3   22   ES      0
    1    4   ES      0
    4   22   ES      0
    1    5   ES      0
    5   22   ES      0
    1    6   ES      0
    6   22   ES      0
    1    7   ES      0
    7   22   ES      0
    1    8   ES      0
    8   22   ES      0
    1    9   ES      0
    9   22   ES      0
    1   10   ES      0
   10   22   ES      0
    1   11   ES      0
   11   22   ES      0
    1   12   ES      0
   12   22   ES      0
    1   13   ES      0
   13   22   ES      0
    1   14   ES      0
   14   22   ES      0
    1   15   ES      0
   15   22   ES      0
    1   16   ES      0
   16   22   ES      0
    1   17   ES      0
   17   22   ES      0
    1   18   ES      0
   18   22   ES      0
    1   19   ES      0
   19   22   ES      0
    1   20   ES      0
   20   22   ES      0
    1   21   ES      0
   21   22   ES      0
    1   22   ES      0
    2    6   SS     -3
    2    6   SE     -7
    2    6   ES      8
    2    6   EE     -7
    2    9   SS     -2
    2    9   SE      0
    2    9   ES     10
    2    9   EE      2
    2   14   SS     11
    2   14   SE      4
    2   14   ES     10
    2   14   EE      3
    3    6   SS    -10
    3    6   SE      4
    3    6   ES     12
    3    6   EE      4
    3    9   SS      4
    3    9   SE     -8
    3    9   ES     -8
    3    9   EE     -6
    3   13   SS      2
    3   13   SE      4
    3   13   ES      8
    3   13   EE      5
    4    5   SS      8
    4    5   SE      3
    4    5   ES    -11
    4    5   EE     -2
    4    7   SS      9
    4    7   SE      5
    4    7   ES     -3
    4    7   EE    -10
    4   16   SS      0
    4   16   SE      4
    4   16   ES    -11
    4   16   EE      0
    5    8   SS     10
    5    8   SE    -10
    5    8   ES     11
    5    8   EE     -6
    5   12   SS     10
    5   12   SE     11
    5   12   ES     -4
    5   12   EE      6
    5   21   SS      8
    5   21   SE     -1
   21    5   SE      0
    5   21   ES      0
    5   21   EE     -3
    6   11   SS      2
    6   11   SE     11
    6   11   ES      6
    6   11   EE      7
    7   12   SS      5
    7   12   SE     -4
    7   12   ES      0
    7   12   EE    -12
    7   14   SS     12
    7   14   SE      9
    7   14   ES     -2
    7   14   EE      4
    7   18   SS      1
    7   18   SE      9
    7   18   ES      2
    7   18   EE      7
    8   18   SS     -4
    8   18   SE      6
    8   18   ES     12
    8   18   EE      0
    9   10   SS     -6
    9   10   SE      9
    9   10   ES      5
    9   10   EE     -5
    9   19   SS    -12
    9   19   SE      7
    9   19   ES      2
    9   19   EE     -8
    9   20   SS     -6
    9   20   SE      0
    9   20   ES     -9
    9   20   EE    -11
   10   15   SS      5
   10   15   SE    -11
   10   15   ES      6
   10   15   EE     -8
   10   16   SS      1
   10   16   SE    -10
   10   16   ES      0
   10   16   EE      0
   11   17   SS     -8
   11   17   SE    -12
   11   17   ES     -9
   11   17   EE      1
   11   18   SS     -2
   11   18   SE     -1
   11   18   ES     -2
   11   18   EE     11
   11   20   SS      2
   11   20   SE      9
   11   20   ES      4
   11   20   EE      1
   12   19   SS     -4
   12   19   SE     -2
   12   19   ES      3
   12   19   EE      9
   12   20   SS      4
   12   20   SE      0
   12   20   ES     -2
   12   20   EE     -2
   13   14   SS     12
   13   14   SE     12
   13   14   ES     -1
   13   14   EE      3
   13   16   SS     -1
   13   16   SE     -9
   13   16   ES     -7
   13   16   EE     -4
   14   15   SS      3
   14   15   SE      1
   14   15   ES     -4
   14   15   EE    -12
   15   17   SS    -12
   15   17   SE    -11
   15   17   ES      0
   15   17   EE      4
   16   21   SS      2
   16   21   SE     -2
   16   21   ES      4
   16   21   EE      1
   17   21   SS      4
   17   21   SE     -8
   17   21   ES     -3
   17   21   EE      9
   18   19   SS    -11
   18   19   SE     -1
   18   19   ES    -10
   18   19   EE      1
************************************************************************
